NAME: tsp30-49
TYPE: TSP
DIMENSION: 30
EDGE_WEIGHT_TYPE: EUC_2D
NODE_COORD_SECTION
0 24 34
1 79 2
2 61 27
3 79 95
4 40 9
5 70 71
6 37 76
7 8 26
8 56 67
9 75 42
10 60 8
11 0 84
12 75 50
13 25 96
14 7 66
15 65 14
16 2 88
17 6 14
18 29 31
19 60 92
20 21 60
21 25 18
22 69 32
23 43 74
24 90 43
25 72 89
26 48 56
27 11 1
28 93 10
29 38 11
EOF